Minimize
  100 x_specialized_third_party + 72 x_common_third_party_annotation_company
Subject To
  c1: 60 x_specialized_third_party + 40 x_common_third_party_annotation_company >= 10,000
  c2: 0.6666666666666667 x_specialized_third_party - 0.3333333333333333 x_common_third_party_annotation_company >= 0
End